117 156 33 82 94 142 56 75 38 83 70 72 187 164 160 27 154 20 81 9 176 8 85 152 23 168 87 124 45 119 89 3 96 49 65 98 64 143 67 77 39 181 103 54 130 177 149 183 58 57 110 184 139 125 18 135 159 193 194 198 35 161 167 7 153 174 189 197 178 196 53 59 61 118 34 47 129 28 37 185 144 63 186 165 182 157 42 199 21 15 40 155 172 126 175 171 93 88 190 26 78 32 173 106 0 120 111 73 132 19 141 12 166 6 43 122 29 92 102 133 109 31 136 2 137 41 74 99 147 5 121 140 195 52 46 188 150 151 51 108 60 113 24 115 30 97 169 48 104 127 22 100 44 163 95 13 105 71 79 69 192 66 107 158 131 128 180 114 134 86 11 55 14 148 17 1 116 162 4 62 68 80 179 145 36 50 191 112 138 90 84 91 25 123 101 76 16 170 146 10